NAME : cgl_78.8985.tour
COMMENT : Length = 8985
COMMENT : Found by LKH-3 [Keld Helsgaun] Fri Nov  8 17:38:22 2024
TYPE : TOUR
DIMENSION : 79
TOUR_SECTION
23
27
29
19
20
25
28
35
36
37
39
38
40
42
41
43
52
46
45
51
50
44
54
56
57
59
48
47
53
55
58
60
49
61
12
13
15
14
7
6
5
11
1
8
9
10
3
4
2
76
73
74
70
75
71
72
69
78
66
65
68
67
62
63
64
77
79
33
32
34
31
30
16
17
18
21
26
22
24
-1
EOF
